NAME : pr124.78199.tour
COMMENT : Cost = 26103_78199
COMMENT : Found by LKH [Keld Helsgaun] Thu Nov 16 14:48:51 2017
TYPE : TOUR
DIMENSION : 126
TOUR_SECTION
1
8
23
39
40
21
20
19
18
17
16
9
10
11
12
13
14
15
51
50
49
48
47
46
52
53
87
86
90
85
37
38
24
25
126
7
27
28
29
35
36
55
58
67
83
81
82
84
115
116
117
118
119
120
121
122
123
124
100
99
98
97
96
95
94
93
92
80
79
78
77
76
75
74
73
72
71
70
69
68
64
63
65
66
62
60
61
59
33
34
30
31
32
6
5
4
3
2
125
26
56
57
91
101
102
103
114
113
112
111
110
109
108
107
106
105
104
89
88
54
45
44
43
42
41
22
-1
EOF
